JulietBench/Juliet_Based_Patch_Bench/linux/CWE-189-Numeric-Errors/CVE_2014_4656_ac902c112d90a89e59916f751c2745f4dbdbb4bd/Resultsnd_ctl_remove_numid_conflict_Snippet_patch2NEQ.smt2
; benchmark generated from python API
(set-info :status unknown)
(declare-fun R () (_ BitVec 32))
(declare-fun rdi () (_ BitVec 64))
(declare-fun rsi () (_ BitVec 64))
(assert
 (let (($x558 (and (distinct (_ bv0 32) R) true)))
 (let (($x212 (= (_ bv0 32) R)))
 (let ((?x14 (bvadd (bvadd ((_ extract 31 0) rsi) ((_ extract 31 0) rdi)) (_ bv1 32))))
 (let (($x70 (bvuge (_ bv28 32) ?x14)))
 (let (($x59 (and $x70 $x212)))
 (let (($x19 (bvult (_ bv28 32) ?x14)))
 (let ((?x6 ((_ extract 31 0) rdi)))
 (let ((?x60 (bvadd ?x6 (_ bv1 32))))
 (let (($x67 (bvule (_ bv78 32) ?x60)))
 (let (($x667 (and $x67 $x19 $x212)))
 (let (($x15 (= (_ bv1 32) R)))
 (let (($x602 (bvugt (_ bv78 32) ?x60)))
 (let (($x9 (and $x602 $x19 $x15)))
 (let (($x39 (or $x9 $x667 $x59)))
 (let (($x603 (not $x39)))
 (let (($x522 (and $x603 $x558)))
 (let (($x40 (and $x39 $x212)))
 (let (($x222 (or $x40 $x522)))
 (not $x222))))))))))))))))))))
(check-sat)
